# Solution for model GasLib-40
# Objective value = 53.1628198278258
loadshed[innode_1] 0
loadshed[innode_2] 0
loadshed[innode_3] 0
loadshed[innode_4] 0
loadshed[innode_5] 0
loadshed[innode_6] 0
loadshed[innode_7] 0
loadshed[innode_8] 0
loadshed[source_1] -1.6371602866907864e-01
loadshed[source_2] 1.9740210452984930e-01
loadshed[source_3] 3.0259532344532214e-01
loadshed[sink_1] 3.8566404287493938e-01
loadshed[sink_2] 0
loadshed[sink_3] 0
loadshed[sink_4] 0
loadshed[sink_5] 0
loadshed[sink_6] 0
loadshed[sink_7] 0
loadshed[sink_8] 0
loadshed[sink_9] 0
loadshed[sink_10] 0
loadshed[sink_11] 0
loadshed[sink_12] 1
loadshed[sink_13] 0
loadshed[sink_14] 0
loadshed[sink_15] 0
loadshed[sink_16] 0
loadshed[sink_17] 0
loadshed[sink_18] 0
loadshed[sink_19] 0
loadshed[sink_20] 0
loadshed[sink_21] 1
loadshed[sink_22] 0
loadshed[sink_23] 0
loadshed[sink_24] 8.6505615041886719e-01
loadshed[sink_25] 0
loadshed[sink_26] 0
loadshed[sink_27] 0
loadshed[sink_28] 0
loadshed[sink_29] 0
flow[source_1,sink_3] 1.8397219022674705e+02
flow[innode_1,sink_16] 1.6354166666666970e+01
flow[innode_6,sink_13] 4.2262676266168882e+00
flow[sink_13,sink_14] -1.2127899040049780e+01
flow[sink_14,sink_10] -2.8482065706716448e+01
flow[sink_25,sink_26] 1.1227336056534212e+02
flow[sink_26,sink_9] 0
flow[sink_9,sink_18] -1.6354166666669244e+01
flow[sink_26,sink_4] 9.5919193898675445e+01
flow[sink_4,sink_20] -1.4455068685760855e+01
flow[sink_18,sink_6] -3.2708333333335915e+01
flow[sink_25,innode_8] -1.5126385689341066e+02
flow[sink_6,sink_7] -7.5463619298818656e+01
flow[sink_6,sink_22] 26.4011192988161
flow[sink_7,sink_24] 2.2068942066914445e+00
flow[sink_22,sink_1] 1.0046952632149431e+01
flow[sink_24,sink_21] 0
flow[sink_21,sink_12] 0
flow[sink_7,sink_5] -9.4024680172176772e+01
flow[sink_5,sink_17] -1.1037884683884344e+02
flow[sink_17,sink_4] -9.4020095917769638e+01
flow[sink_17,sink_8] -3.2712917587740478e+01
flow[sink_3,sink_23] 16.3541666666697
flow[sink_8,sink_20] -4.9067084254407149e+01
flow[sink_25,sink_20] 7.9876319606834642e+01
flow[sink_25,sink_15] -6.1466257572051134e+01
flow[sink_15,sink_29] -9.4174590905402056e+01
flow[sink_29,sink_28] 1.6354166666667879e+01
flow[sink_29,sink_2] 0
flow[sink_2,sink_15] -1.6354166666684250e+01
flow[sink_29,innode_7] -1.2688292423873597e+02
flow[innode_4,sink_19] 0
flow[sink_19,innode_3] 3.7841420749443877e+01
flow[innode_4,innode_5] 1.1025289904005028e+02
flow[sink_27,innode_5] -1.1025289904005028e+02
flow[sink_27,sink_19] 9.3898732373383609e+01
flow[sink_10,sink_11] 3.2708333333333641e+01
flow[sink_10,innode_2] -3.9703144957272876e+01
flow[sink_10,innode_3] -3.7841420749443877e+01
flow[innode_6,sink_25] -4.2262676266168882e+00
flow[sink_11,innode_1] 1.6354166666666970e+01
flow[sink_19,innode_2] 3.9703144957272876e+01
flow[source_3,innode_4] 1.1025289904005028e+02
flow[source_2,innode_7] 1.2688292423873597e+02
flow[sink_3,innode_8] 1.5126385689341066e+02
pressure[innode_1] 7.5756299951494071e+01
pressure[innode_2] 7.8006476449448684e+01
pressure[innode_3] 7.7922680908275083e+01
pressure[innode_4] 81.01325
pressure[innode_5] 8.0937412242386884e+01
pressure[innode_6] 7.4562434342898413e+01
pressure[innode_7] 81.01325
pressure[innode_8] 8.0398301247996017e+01
pressure[source_1] 81.01325
pressure[source_2] 81.01325
pressure[source_3] 81.01325
pressure[sink_1] 1.0132500000000002e+00
pressure[sink_2] 7.4807212836419879e+01
pressure[sink_3] 8.0398301247996017e+01
pressure[sink_4] 5.4459672930535866e+01
pressure[sink_5] 4.2644108637968671e+01
pressure[sink_6] 2.5040438135162284e+00
pressure[sink_7] 3.5399794284453776e+00
pressure[sink_8] 52.1008782528973
pressure[sink_9] 1.0388914342099906e+00
pressure[sink_10] 7.5908001259097617e+01
pressure[sink_11] 7.5756299951494071e+01
pressure[sink_12] 1.01325
pressure[sink_13] 7.4539135635747812e+01
pressure[sink_14] 7.4560839544148550e+01
pressure[sink_15] 7.4860605586186324e+01
pressure[sink_16] 7.4734650116676391e+01
pressure[sink_17] 5.0866534886241794e+01
pressure[sink_18] 1.6306339280097450e+00
pressure[sink_19] 7.8006476449448684e+01
pressure[sink_20] 5.5520163981724394e+01
pressure[sink_21] 1.01325
pressure[sink_22] 1.6667616342287581e+00
pressure[sink_23] 8.0233583236336230e+01
pressure[sink_24] 1.01325
pressure[sink_25] 7.4562434342898413e+01
pressure[sink_26] 6.6655087492769582e+01
pressure[sink_27] 8.0022516905806512e+01
pressure[sink_28] 7.7324346566281264e+01
pressure[sink_29] 7.7619628839898439e+01
interdiction[source_1,sink_3] 0
interdiction[innode_1,sink_16] 0
interdiction[innode_6,sink_13] 0
interdiction[sink_13,sink_14] 0
interdiction[sink_14,sink_10] 0
interdiction[sink_25,sink_26] 0
interdiction[sink_26,sink_9] 1
interdiction[sink_9,sink_18] 0
interdiction[sink_26,sink_4] 0
interdiction[sink_4,sink_20] 0
interdiction[sink_18,sink_6] 0
interdiction[sink_25,innode_8] 0
interdiction[sink_6,sink_7] 0
interdiction[sink_6,sink_22] 0
interdiction[sink_7,sink_24] 0
interdiction[sink_22,sink_1] 0
interdiction[sink_24,sink_21] 0
interdiction[sink_21,sink_12] 0
interdiction[sink_7,sink_5] 0
interdiction[sink_5,sink_17] 0
interdiction[sink_17,sink_4] 0
interdiction[sink_17,sink_8] 0
interdiction[sink_3,sink_23] 0
interdiction[sink_8,sink_20] 0
interdiction[sink_25,sink_20] 0
interdiction[sink_25,sink_15] 0
interdiction[sink_15,sink_29] 0
interdiction[sink_29,sink_28] 0
interdiction[sink_29,sink_2] 1
interdiction[sink_2,sink_15] 0
interdiction[sink_29,innode_7] 0
interdiction[innode_4,sink_19] 1
interdiction[sink_19,innode_3] 0
interdiction[innode_4,innode_5] 0
interdiction[sink_27,innode_5] 0
interdiction[sink_27,sink_19] 0
interdiction[sink_10,sink_11] 0
interdiction[sink_10,innode_2] 0
interdiction[sink_10,innode_3] 0
interdiction[innode_6,sink_25] 0
interdiction[sink_11,innode_1] 0
interdiction[sink_19,innode_2] 0
interdiction[source_3,innode_4] 0
interdiction[source_2,innode_7] 0
interdiction[sink_3,innode_8] 0
WCcheckFlow[source_1,sink_3] 39
WCcheckFlow[innode_1,sink_16] 1
WCcheckFlow[innode_6,sink_13] 13
WCcheckFlow[sink_13,sink_14] 12
WCcheckFlow[sink_14,sink_10] 11
WCcheckFlow[sink_25,sink_26] 15
WCcheckFlow[sink_26,sink_9] 0
WCcheckFlow[sink_9,sink_18] -1
WCcheckFlow[sink_26,sink_4] 14
WCcheckFlow[sink_4,sink_20] 1
WCcheckFlow[sink_18,sink_6] -2
WCcheckFlow[sink_25,innode_8] -36
WCcheckFlow[sink_6,sink_7] -5
WCcheckFlow[sink_6,sink_22] 2
WCcheckFlow[sink_7,sink_24] 3
WCcheckFlow[sink_22,sink_1] 1
WCcheckFlow[sink_24,sink_21] 2
WCcheckFlow[sink_21,sink_12] 1
WCcheckFlow[sink_7,sink_5] -9
WCcheckFlow[sink_5,sink_17] -10
WCcheckFlow[sink_17,sink_4] -12
WCcheckFlow[sink_17,sink_8] 1
WCcheckFlow[sink_3,sink_23] 1
WCcheckFlow[sink_8,sink_20] 0
WCcheckFlow[sink_25,sink_20] 0
WCcheckFlow[sink_25,sink_15] 6
WCcheckFlow[sink_15,sink_29] 4
WCcheckFlow[sink_29,sink_28] 1
WCcheckFlow[sink_29,sink_2] 0
WCcheckFlow[sink_2,sink_15] -1
WCcheckFlow[sink_29,innode_7] 2
WCcheckFlow[innode_4,sink_19] 0
WCcheckFlow[sink_19,innode_3] -5
WCcheckFlow[innode_4,innode_5] -2
WCcheckFlow[sink_27,innode_5] 3
WCcheckFlow[sink_27,sink_19] -4
WCcheckFlow[sink_10,sink_11] 3
WCcheckFlow[sink_10,innode_2] 1
WCcheckFlow[sink_10,innode_3] 6
WCcheckFlow[innode_6,sink_25] -14
WCcheckFlow[sink_11,innode_1] 2
WCcheckFlow[sink_19,innode_2] 0
WCcheckFlow[source_3,innode_4] -1
WCcheckFlow[source_2,innode_7] -1
WCcheckFlow[sink_3,innode_8] 37
